sat
(:elim-unconstrained  2
 :max-memory          18.72
 :memory              18.63
 :nlsat-arith-var     2
 :nlsat-atoms         6
 :nlsat-bool-var      1
 :nlsat-clauses       6
 :nlsat-propagations  6
 :nlsat-stages        3
 :num-allocs          122168
 :rlimit-count        23740
 :solve-eqs-elim-vars 1
 :solve-eqs-steps     1
 :time                0.03
 :total-time          0.04)
